
Gurobi 6.5.2 (linux64) logging started Tue Sep  6 10:06:18 2016

Optimize a model with 41 rows, 153 columns and 319 nonzeros
Coefficient statistics:
  Matrix range    [1e+00, 2e+00]
  Objective range [3e+00, 1e+02]
  Bounds range    [1e+00, 1e+00]
  RHS range       [1e+00, 1e+00]
Presolve removed 17 rows and 12 columns
Presolve time: 0.00s
Presolved: 24 rows, 141 columns, 286 nonzeros
Variable types: 0 continuous, 141 integer (141 binary)
Found heuristic solution: objective 1031.0000000

Root relaxation: objective 4.160000e+02, 24 iterations, 0.00 seconds

    Nodes    |    Current Node    |     Objective Bounds      |     Work
 Expl Unexpl |  Obj  Depth IntInf | Incumbent    BestBd   Gap | It/Node Time

     0     0  416.00000    0    4 1031.00000  416.00000  59.7%     -    0s
H    0     0                     700.0000000  416.00000  40.6%     -    0s
*    0     0               0     426.0000000  426.00000  0.00%     -    0s

Cutting planes:
  Gomory: 3
  Cover: 6
  Lazy constraints: 3

Explored 0 nodes (30 simplex iterations) in 0.00 seconds
Thread count was 8 (of 8 available processors)

Optimal solution found (tolerance 1.00e-04)
Best objective 4.260000000000e+02, best bound 4.260000000000e+02, gap 0.0%
